objective value:                                    0
x_0_1_8                                             1 	(obj:0)
x_0_2_16                                            1 	(obj:0)
x_0_3_2                                             1 	(obj:0)
x_0_4_11                                            1 	(obj:0)
x_0_5_0                                             1 	(obj:0)
x_0_6_7                                             1 	(obj:0)
x_0_7_14                                            1 	(obj:0)
x_0_8_13                                            1 	(obj:0)
x_0_9_5                                             1 	(obj:0)
x_1_0_9                                             1 	(obj:0)
x_1_2_11                                            1 	(obj:0)
x_1_3_14                                            1 	(obj:0)
x_1_4_5                                             1 	(obj:0)
x_1_5_13                                            1 	(obj:0)
x_1_6_0                                             1 	(obj:0)
x_1_7_7                                             1 	(obj:0)
x_1_8_2                                             1 	(obj:0)
x_1_9_16                                            1 	(obj:0)
x_2_0_1                                             1 	(obj:0)
x_2_1_6                                             1 	(obj:0)
x_2_3_17                                            1 	(obj:0)
x_2_4_9                                             1 	(obj:0)
x_2_5_15                                            1 	(obj:0)
x_2_6_4                                             1 	(obj:0)
x_2_7_12                                            1 	(obj:0)
x_2_8_10                                            1 	(obj:0)
x_2_9_3                                             1 	(obj:0)
x_3_0_15                                            1 	(obj:0)
x_3_1_3                                             1 	(obj:0)
x_3_2_0                                             1 	(obj:0)
x_3_4_13                                            1 	(obj:0)
x_3_5_6                                             1 	(obj:0)
x_3_6_16                                            1 	(obj:0)
x_3_7_8                                             1 	(obj:0)
x_3_8_5                                             1 	(obj:0)
x_3_9_10                                            1 	(obj:0)
x_4_0_6                                             1 	(obj:0)
x_4_1_12                                            1 	(obj:0)
x_4_2_8                                             1 	(obj:0)
x_4_3_4                                             1 	(obj:0)
x_4_5_10                                            1 	(obj:0)
x_4_6_3                                             1 	(obj:0)
x_4_7_17                                            1 	(obj:0)
x_4_8_1                                             1 	(obj:0)
x_4_9_15                                            1 	(obj:0)
x_5_0_17                                            1 	(obj:0)
x_5_1_4                                             1 	(obj:0)
x_5_2_2                                             1 	(obj:0)
x_5_3_11                                            1 	(obj:0)
x_5_4_7                                             1 	(obj:0)
x_5_6_12                                            1 	(obj:0)
x_5_7_1                                             1 	(obj:0)
x_5_8_14                                            1 	(obj:0)
x_5_9_9                                             1 	(obj:0)
x_6_0_10                                            1 	(obj:0)
x_6_1_17                                            1 	(obj:0)
x_6_2_13                                            1 	(obj:0)
x_6_3_1                                             1 	(obj:0)
x_6_4_14                                            1 	(obj:0)
x_6_5_5                                             1 	(obj:0)
x_6_7_2                                             1 	(obj:0)
x_6_8_9                                             1 	(obj:0)
x_6_9_6                                             1 	(obj:0)
x_7_0_3                                             1 	(obj:0)
x_7_1_10                                            1 	(obj:0)
x_7_2_5                                             1 	(obj:0)
x_7_3_9                                             1 	(obj:0)
x_7_4_0                                             1 	(obj:0)
x_7_5_16                                            1 	(obj:0)
x_7_6_15                                            1 	(obj:0)
x_7_8_6                                             1 	(obj:0)
x_7_9_13                                            1 	(obj:0)
x_8_0_4                                             1 	(obj:0)
x_8_1_15                                            1 	(obj:0)
x_8_2_7                                             1 	(obj:0)
x_8_3_12                                            1 	(obj:0)
x_8_4_16                                            1 	(obj:0)
x_8_5_3                                             1 	(obj:0)
x_8_6_8                                             1 	(obj:0)
x_8_7_11                                            1 	(obj:0)
x_8_9_0                                             1 	(obj:0)
x_9_0_12                                            1 	(obj:0)
x_9_1_1                                             1 	(obj:0)
x_9_2_14                                            1 	(obj:0)
x_9_3_7                                             1 	(obj:0)
x_9_4_2                                             1 	(obj:0)
x_9_5_8                                             1 	(obj:0)
x_9_6_11                                            1 	(obj:0)
x_9_7_4                                             1 	(obj:0)
x_9_8_17                                            1 	(obj:0)
y_0_0                                               1 	(obj:0)
y_0_2                                               1 	(obj:0)
y_0_8                                               1 	(obj:0)
y_0_14                                              1 	(obj:0)
y_0_16                                              1 	(obj:0)
y_1_0                                               1 	(obj:0)
y_1_2                                               1 	(obj:0)
y_1_14                                              1 	(obj:0)
y_1_16                                              1 	(obj:0)
y_2_4                                               1 	(obj:0)
y_2_6                                               1 	(obj:0)
y_2_10                                              1 	(obj:0)
y_2_12                                              1 	(obj:0)
y_3_0                                               1 	(obj:0)
y_3_6                                               1 	(obj:0)
y_3_8                                               1 	(obj:0)
y_3_10                                              1 	(obj:0)
y_3_16                                              1 	(obj:0)
y_4_4                                               1 	(obj:0)
y_4_6                                               1 	(obj:0)
y_4_8                                               1 	(obj:0)
y_4_10                                              1 	(obj:0)
y_4_12                                              1 	(obj:0)
y_5_2                               0.999999999999999 	(obj:0)
y_5_4                                               1 	(obj:0)
y_5_12                                              1 	(obj:0)
y_5_14                              0.999999999999999 	(obj:0)
y_6_2                                               1 	(obj:0)
y_6_6                                               1 	(obj:0)
y_6_10                                              1 	(obj:0)
y_6_14                                              1 	(obj:0)
y_7_0                                               1 	(obj:0)
y_7_6                                               1 	(obj:0)
y_7_10                                              1 	(obj:0)
y_7_16                                              1 	(obj:0)
y_8_0                                               1 	(obj:0)
y_8_4                                               1 	(obj:0)
y_8_8                                               1 	(obj:0)
y_8_12                                              1 	(obj:0)
y_8_16                                              1 	(obj:0)
y_9_2                                               1 	(obj:0)
y_9_4                                               1 	(obj:0)
y_9_8                                               1 	(obj:0)
y_9_12                                              1 	(obj:0)
y_9_14                                              1 	(obj:0)
